\ Equation counts
\     Total        E        G        L        N        X        C        B
\       189       21       84       84        0        0        0        0
\ 
\ Variable counts
\                  x        b        i      s1s      s2s       sc       si
\     Total     cont   binary  integer     sos1     sos2    scont     sint
\       140       56       84        0        0        0        0        0
\ 
\ Nonzero counts
\     Total    const       NL      DLL
\       644      630       14        0
\ 
Minimize
 obj: - 1.2e3 x1 - 7.8e3 x2 - 3.36e3 x3 - 4.2e2 x4 - 6.6e3 x5 - 3.6e3 x6 - 1.2e4 x7 - 3e3 x8 - 1.17e4 x9 
  - 4.32e3 x10 - 4.2e2 x11 - 5.61e3 x12 - 1.6e3 x13 - 8e3 x14 + 0 b15 + 0 b16 + 0 b17 + 0 b18 + 0 b19 
  + 0 b20 + 0 b21 + 0 b22 + 0 b23 + 0 b24 + 0 b25 + 0 b26 + 0 b27 + 0 b28 + 0 b29 + 0 b30 + 0 b31 + 0 b32 
  + 0 b33 + 0 b34 + 0 b35 + 0 b36 + 0 b37 + 0 b38 + 0 b39 + 0 b40 + 0 b41 + 0 b42 + 0 b43 + 0 b44 + 0 b45 
  + 0 b46 + 0 b47 + 0 b48 + 0 b49 + 0 b50 + 0 b51 + 0 b52 + 0 b53 + 0 b54 + 0 b55 + 0 b56 + 0 b57 + 0 b58 
  + 0 b59 + 0 b60 + 0 b61 + 0 b62 + 0 b63 + 0 b64 + 0 b65 + 0 b66 + 0 b67 + 0 b68 + 0 b69 + 0 b70 + 0 b71 
  + 0 b72 + 0 b73 + 0 b74 + 0 b75 + 0 b76 + 0 b77 + 0 b78 + 0 b79 + 0 b80 + 0 b81 + 0 b82 + 0 b83 + 0 b84 
  + 0 b85 + 0 b86 + 0 b87 + 0 b88 + 0 b89 + 0 b90 + 0 b91 + 0 b92 + 0 b93 + 0 b94 + 0 b95 + 0 b96 + 0 b97 
  + 0 b98 + 300 x99 + 2.4e2 x100 + 2.1e2 x101 + 1.4e2 x102 + 300 x103 + 2.5e2 x104 + 100 x105 + 1.5e2 x106 
  + 2.2e2 x107 + 200 x108 + 300 x109 + 1.2e2 x110 + 300 x111 + 1.5e2 x112 + 1.5e2 x113 + 100 x114 + 1.2e2 x115 
  + 1.8e2 x116 + 1.3e2 x117 + 1.9e2 x118 + 2.2e2 x119 + 300 x120 + 2.4e2 x121 + 2.1e2 x122 + 1.4e2 x123 
  + 300 x124 + 2.5e2 x125 + 100 x126 + 1.5e2 x127 + 2.2e2 x128 + 200 x129 + 300 x130 + 1.2e2 x131 + 300 x132 
  + 1.5e2 x133 + 1.5e2 x134 + 100 x135 + 1.2e2 x136 + 1.8e2 x137 + 1.3e2 x138 + 1.9e2 x139 + 2.2e2 x140
   + [ 300 x1^2 + 7.8e2 x2^2 + 4.8e2 x3^2 + 1.4e2 x4^2 + 3.3e2 x5^2 + 200 x6^2 + 400 x7^2 + 300 x8^2 
  + 7.8e2 x9^2 + 4.8e2 x10^2 + 1.4e2 x11^2 + 3.3e2 x12^2 + 200 x13^2 + 400 x14^2 ]/2 + objconstant

Subject To
 e2: - x1 + x2 + x99 >= 0
 e3: - x1 + x3 + x100 >= 0
 e4: - x1 + x4 + x101 >= 0
 e5: - x1 + x5 + x102 >= 0
 e6: - x1 + x6 + x103 >= 0
 e7: - x1 + x7 + x104 >= 0
 e8: - x2 + x3 + x105 >= 0
 e9: - x2 + x4 + x106 >= 0
 e10: - x2 + x5 + x107 >= 0
 e11: - x2 + x6 + x108 >= 0
 e12: - x2 + x7 + x109 >= 0
 e13: - x3 + x4 + x110 >= 0
 e14: - x3 + x5 + x111 >= 0
 e15: - x3 + x6 + x112 >= 0
 e16: - x3 + x7 + x113 >= 0
 e17: - x4 + x5 + x114 >= 0
 e18: - x4 + x6 + x115 >= 0
 e19: - x4 + x7 + x116 >= 0
 e20: - x5 + x6 + x117 >= 0
 e21: - x5 + x7 + x118 >= 0
 e22: - x6 + x7 + x119 >= 0
 e23: x1 - x2 + x99 >= 0
 e24: x1 - x3 + x100 >= 0
 e25: x1 - x4 + x101 >= 0
 e26: x1 - x5 + x102 >= 0
 e27: x1 - x6 + x103 >= 0
 e28: x1 - x7 + x104 >= 0
 e29: x2 - x3 + x105 >= 0
 e30: x2 - x4 + x106 >= 0
 e31: x2 - x5 + x107 >= 0
 e32: x2 - x6 + x108 >= 0
 e33: x2 - x7 + x109 >= 0
 e34: x3 - x4 + x110 >= 0
 e35: x3 - x5 + x111 >= 0
 e36: x3 - x6 + x112 >= 0
 e37: x3 - x7 + x113 >= 0
 e38: x4 - x5 + x114 >= 0
 e39: x4 - x6 + x115 >= 0
 e40: x4 - x7 + x116 >= 0
 e41: x5 - x6 + x117 >= 0
 e42: x5 - x7 + x118 >= 0
 e43: x6 - x7 + x119 >= 0
 e44: - x8 + x9 + x120 >= 0
 e45: - x8 + x10 + x121 >= 0
 e46: - x8 + x11 + x122 >= 0
 e47: - x8 + x12 + x123 >= 0
 e48: - x8 + x13 + x124 >= 0
 e49: - x8 + x14 + x125 >= 0
 e50: - x9 + x10 + x126 >= 0
 e51: - x9 + x11 + x127 >= 0
 e52: - x9 + x12 + x128 >= 0
 e53: - x9 + x13 + x129 >= 0
 e54: - x9 + x14 + x130 >= 0
 e55: - x10 + x11 + x131 >= 0
 e56: - x10 + x12 + x132 >= 0
 e57: - x10 + x13 + x133 >= 0
 e58: - x10 + x14 + x134 >= 0
 e59: - x11 + x12 + x135 >= 0
 e60: - x11 + x13 + x136 >= 0
 e61: - x11 + x14 + x137 >= 0
 e62: - x12 + x13 + x138 >= 0
 e63: - x12 + x14 + x139 >= 0
 e64: - x13 + x14 + x140 >= 0
 e65: x8 - x9 + x120 >= 0
 e66: x8 - x10 + x121 >= 0
 e67: x8 - x11 + x122 >= 0
 e68: x8 - x12 + x123 >= 0
 e69: x8 - x13 + x124 >= 0
 e70: x8 - x14 + x125 >= 0
 e71: x9 - x10 + x126 >= 0
 e72: x9 - x11 + x127 >= 0
 e73: x9 - x12 + x128 >= 0
 e74: x9 - x13 + x129 >= 0
 e75: x9 - x14 + x130 >= 0
 e76: x10 - x11 + x131 >= 0
 e77: x10 - x12 + x132 >= 0
 e78: x10 - x13 + x133 >= 0
 e79: x10 - x14 + x134 >= 0
 e80: x11 - x12 + x135 >= 0
 e81: x11 - x13 + x136 >= 0
 e82: x11 - x14 + x137 >= 0
 e83: x12 - x13 + x138 >= 0
 e84: x12 - x14 + x139 >= 0
 e85: x13 - x14 + x140 >= 0
 e86: x1 - x2 + 40 b15 <= 34
 e87: x1 - x3 + 40 b16 <= 36
 e88: x1 - x4 + 40 b17 <= 36.5
 e89: x1 - x5 + 40 b18 <= 35.5
 e90: x1 - x6 + 40 b19 <= 35
 e91: x1 - x7 + 40 b20 <= 33.5
 e92: x2 - x3 + 40 b21 <= 35
 e93: x2 - x4 + 40 b22 <= 35.5
 e94: x2 - x5 + 40 b23 <= 34.5
 e95: x2 - x6 + 40 b24 <= 34
 e96: x2 - x7 + 40 b25 <= 32.5
 e97: x3 - x4 + 40 b26 <= 37.5
 e98: x3 - x5 + 40 b27 <= 36.5
 e99: x3 - x6 + 40 b28 <= 36
 e100: x3 - x7 + 40 b29 <= 34.5
 e101: x4 - x5 + 40 b30 <= 37
 e102: x4 - x6 + 40 b31 <= 36.5
 e103: x4 - x7 + 40 b32 <= 35
 e104: x5 - x6 + 40 b33 <= 35.5
 e105: x5 - x7 + 40 b34 <= 34
 e106: x6 - x7 + 40 b35 <= 33.5
 e107: - x1 + x2 + 40 b36 <= 34
 e108: - x1 + x3 + 40 b37 <= 36
 e109: - x1 + x4 + 40 b38 <= 36.5
 e110: - x1 + x5 + 40 b39 <= 35.5
 e111: - x1 + x6 + 40 b40 <= 35
 e112: - x1 + x7 + 40 b41 <= 33.5
 e113: - x2 + x3 + 40 b42 <= 35
 e114: - x2 + x4 + 40 b43 <= 35.5
 e115: - x2 + x5 + 40 b44 <= 34.5
 e116: - x2 + x6 + 40 b45 <= 34
 e117: - x2 + x7 + 40 b46 <= 32.5
 e118: - x3 + x4 + 40 b47 <= 37.5
 e119: - x3 + x5 + 40 b48 <= 36.5
 e120: - x3 + x6 + 40 b49 <= 36
 e121: - x3 + x7 + 40 b50 <= 34.5
 e122: - x4 + x5 + 40 b51 <= 37
 e123: - x4 + x6 + 40 b52 <= 36.5
 e124: - x4 + x7 + 40 b53 <= 35
 e125: - x5 + x6 + 40 b54 <= 35.5
 e126: - x5 + x7 + 40 b55 <= 34
 e127: - x6 + x7 + 40 b56 <= 33.5
 e128: x8 - x9 + 40 b57 <= 34.5
 e129: x8 - x10 + 40 b58 <= 35.5
 e130: x8 - x11 + 40 b59 <= 35.5
 e131: x8 - x12 + 40 b60 <= 35
 e132: x8 - x13 + 40 b61 <= 36
 e133: x8 - x14 + 40 b62 <= 34
 e134: x9 - x10 + 40 b63 <= 36
 e135: x9 - x11 + 40 b64 <= 36
 e136: x9 - x12 + 40 b65 <= 35.5
 e137: x9 - x13 + 40 b66 <= 36.5
 e138: x9 - x14 + 40 b67 <= 34.5
 e139: x10 - x11 + 40 b68 <= 37
 e140: x10 - x12 + 40 b69 <= 36.5
 e141: x10 - x13 + 40 b70 <= 37.5
 e142: x10 - x14 + 40 b71 <= 35.5
 e143: x11 - x12 + 40 b72 <= 36.5
 e144: x11 - x13 + 40 b73 <= 37.5
 e145: x11 - x14 + 40 b74 <= 35.5
 e146: x12 - x13 + 40 b75 <= 37
 e147: x12 - x14 + 40 b76 <= 35
 e148: x13 - x14 + 40 b77 <= 36
 e149: - x8 + x9 + 40 b78 <= 34.5
 e150: - x8 + x10 + 40 b79 <= 35.5
 e151: - x8 + x11 + 40 b80 <= 35.5
 e152: - x8 + x12 + 40 b81 <= 35
 e153: - x8 + x13 + 40 b82 <= 36
 e154: - x8 + x14 + 40 b83 <= 34
 e155: - x9 + x10 + 40 b84 <= 36
 e156: - x9 + x11 + 40 b85 <= 36
 e157: - x9 + x12 + 40 b86 <= 35.5
 e158: - x9 + x13 + 40 b87 <= 36.5
 e159: - x9 + x14 + 40 b88 <= 34.5
 e160: - x10 + x11 + 40 b89 <= 37
 e161: - x10 + x12 + 40 b90 <= 36.5
 e162: - x10 + x13 + 40 b91 <= 37.5
 e163: - x10 + x14 + 40 b92 <= 35.5
 e164: - x11 + x12 + 40 b93 <= 36.5
 e165: - x11 + x13 + 40 b94 <= 37.5
 e166: - x11 + x14 + 40 b95 <= 35.5
 e167: - x12 + x13 + 40 b96 <= 37
 e168: - x12 + x14 + 40 b97 <= 35
 e169: - x13 + x14 + 40 b98 <= 36
 e170: b15 + b36 + b57 + b78 = 1
 e171: b16 + b37 + b58 + b79 = 1
 e172: b17 + b38 + b59 + b80 = 1
 e173: b18 + b39 + b60 + b81 = 1
 e174: b19 + b40 + b61 + b82 = 1
 e175: b20 + b41 + b62 + b83 = 1
 e176: b21 + b42 + b63 + b84 = 1
 e177: b22 + b43 + b64 + b85 = 1
 e178: b23 + b44 + b65 + b86 = 1
 e179: b24 + b45 + b66 + b87 = 1
 e180: b25 + b46 + b67 + b88 = 1
 e181: b26 + b47 + b68 + b89 = 1
 e182: b27 + b48 + b69 + b90 = 1
 e183: b28 + b49 + b70 + b91 = 1
 e184: b29 + b50 + b71 + b92 = 1
 e185: b30 + b51 + b72 + b93 = 1
 e186: b31 + b52 + b73 + b94 = 1
 e187: b32 + b53 + b74 + b95 = 1
 e188: b33 + b54 + b75 + b96 = 1
 e189: b34 + b55 + b76 + b97 = 1
 e190: b35 + b56 + b77 + b98 = 1

Bounds
 2.5 <= x1 <= 37.5
 3.5 <= x2 <= 36.5
 1.5 <= x3 <= 38.5
 1 <= x4 <= 39
 2 <= x5 <= 38
 2.5 <= x6 <= 37.5
 4 <= x7 <= 36
 3 <= x8 <= 37
 2.5 <= x9 <= 37.5
 1.5 <= x10 <= 38.5
 1.5 <= x11 <= 38.5
 2 <= x12 <= 38
 1 <= x13 <= 39
 3 <= x14 <= 37
 objconstant = 589095

Binary
 b15 b16 b17 b18 b19 b20 b21 b22 b23 b24 b25 b26 b27 b28 b29 b30 b31 b32 b33 b34 b35 b36 b37
 b38 b39 b40 b41 b42 b43 b44 b45 b46 b47 b48 b49 b50 b51 b52 b53 b54 b55 b56 b57 b58 b59 b60
 b61 b62 b63 b64 b65 b66 b67 b68 b69 b70 b71 b72 b73 b74 b75 b76 b77 b78 b79 b80 b81 b82 b83
 b84 b85 b86 b87 b88 b89 b90 b91 b92 b93 b94 b95 b96 b97 b98

End
